(set-logic QF_NRA)
(set-info :source |Benchmarks generated from hycomp (https://es-static.fbk.eu/tools/hycomp/). BMC instances of non-linear hybrid automata taken from: Alessandro Cimatti, Sergio Mover, Stefano Tonetta, A quantifier-free SMT encoding of non-linear hybrid automata, FMCAD 2012 and Alessandro Cimatti, Sergio Mover, Stefano Tonetta, Quantier-free encoding of invariants for Hybrid Systems, Formal Methods in System Design. This instance solves a BMC problem of depth 1 and uses the quantifier free encoding with equivalences encoding. Contacts: Sergio Mover (mover@fbk.eu), Stefano Tonetta (tonettas@fbk.eu), Alessandro Cimatti (cimatti@fbk.eu).|)
(set-info :smt-lib-version 2.0)
(set-info :category "industrial")
(set-info :status unsat)
;; MathSAT API call trace
;; generated on Mon Mar 19 10:47:04 2012
(declare-fun b.y__AT1 () Real)
(declare-fun b.x__AT0 () Real)
(declare-fun b.speed_y__AT0 () Real)
(declare-fun b.event_is_timed__AT0 () Bool)
(declare-fun b.speed_x__AT0 () Real)
(declare-fun b.event_is_timed__AT1 () Bool)
(declare-fun b.time__AT0 () Real)
(declare-fun b.speed_y__AT1 () Real)
(declare-fun b.y__AT0 () Real)
(declare-fun b.counter.0__AT0 () Bool)
(declare-fun b.counter.1__AT0 () Bool)
(declare-fun b.time__AT1 () Real)
(declare-fun b.bool_atom__AT0 () Bool)
(declare-fun b.counter.2__AT0 () Bool)
(declare-fun b.delta__AT1 () Real)
(declare-fun b.EVENT.0__AT1 () Bool)
(declare-fun b.delta__AT0 () Real)
(declare-fun b.speed_x__AT1 () Real)
(declare-fun b.EVENT.0__AT0 () Bool)
(declare-fun b.x__AT1 () Real)
(declare-fun b.counter.0__AT1 () Bool)
(declare-fun b.EVENT.1__AT0 () Bool)
(declare-fun b.counter.1__AT1 () Bool)
(declare-fun b.counter.2__AT1 () Bool)
(declare-fun b.counter.3__AT1 () Bool)
(declare-fun b.bool_atom__AT1 () Bool)
(declare-fun b.EVENT.1__AT1 () Bool)
(declare-fun b.speed_loss__AT0 () Real)
(declare-fun b.counter.3__AT0 () Bool)
(assert (let ((.def_338 (* (- 1.0) b.speed_x__AT1)))
(let ((.def_339 (* b.speed_x__AT1 .def_338)))
(let ((.def_340 (* (- 1.0) .def_339)))
(let ((.def_371 (* 2.0 .def_340)))
(let ((.def_372 (* b.delta__AT1 .def_371)))
(let ((.def_373 (* 5.0 .def_372)))
(let ((.def_278 (* (- 1.0) b.x__AT1)))
(let ((.def_351 (* b.speed_x__AT1 .def_278)))
(let ((.def_376 (* (- 5.0) .def_351)))
(let ((.def_382 (+ .def_376 .def_373)))
(let ((.def_346 (* b.x__AT1 .def_338)))
(let ((.def_374 (* (- 5.0) .def_346)))
(let ((.def_383 (+ .def_374 .def_382)))
(let ((.def_378 (* (- 49.0) b.delta__AT1)))
(let ((.def_384 (+ .def_378 .def_383)))
(let ((.def_380 (* 5.0 b.speed_y__AT1)))
(let ((.def_385 (+ .def_380 .def_384)))
(let ((.def_389 (<= .def_385 0.0 )))
(let ((.def_352 (* (- 1.0) .def_351)))
(let ((.def_347 (* (- 1.0) .def_346)))
(let ((.def_368 (+ .def_347 .def_352)))
(let ((.def_369 (+ b.speed_y__AT1 .def_368)))
(let ((.def_388 (<= .def_369 0.0 )))
(let ((.def_390 (and .def_388 .def_389)))
(let ((.def_386 (<= 0.0 .def_385)))
(let ((.def_370 (<= 0.0 .def_369)))
(let ((.def_387 (and .def_370 .def_386)))
(let ((.def_391 (or .def_387 .def_390)))
(let ((.def_353 (* b.delta__AT1 .def_352)))
(let ((.def_354 (* 10.0 .def_353)))
(let ((.def_348 (* b.delta__AT1 .def_347)))
(let ((.def_349 (* 10.0 .def_348)))
(let ((.def_360 (+ .def_349 .def_354)))
(let ((.def_337 (* b.delta__AT1 b.delta__AT1)))
(let ((.def_341 (* .def_337 .def_340)))
(let ((.def_342 (* 10.0 .def_341)))
(let ((.def_361 (+ .def_342 .def_360)))
(let ((.def_344 (* (- 49.0) .def_337)))
(let ((.def_362 (+ .def_344 .def_361)))
(let ((.def_335 (* b.speed_y__AT1 b.delta__AT1)))
(let ((.def_336 (* 10.0 .def_335)))
(let ((.def_363 (+ .def_336 .def_362)))
(let ((.def_324 (* b.x__AT1 .def_278)))
(let ((.def_356 (* (- 10.0) .def_324)))
(let ((.def_364 (+ .def_356 .def_363)))
(let ((.def_358 (* 10.0 b.y__AT1)))
(let ((.def_365 (+ .def_358 .def_364)))
(let ((.def_366 (<= 0.0 .def_365)))
(let ((.def_325 (<= .def_324 b.y__AT1)))
(let ((.def_367 (and .def_325 .def_366)))
(let ((.def_392 (and .def_367 .def_391)))
(let ((.def_66 (<= b.speed_loss__AT0 (/ 1 2))))
(let ((.def_63 (<= (/ 1 10) b.speed_loss__AT0)))
(let ((.def_67 (and .def_63 .def_66)))
(let ((.def_393 (and .def_67 .def_392)))
(let ((.def_35 (not b.counter.0__AT0)))
(let ((.def_329 (or b.counter.1__AT0 .def_35)))
(let ((.def_38 (not b.counter.2__AT0)))
(let ((.def_330 (or .def_38 .def_329)))
(let ((.def_331 (or b.counter.3__AT0 .def_330)))
(let ((.def_326 (and .def_67 .def_325)))
(let ((.def_321 (not b.EVENT.0__AT1)))
(let ((.def_319 (not b.EVENT.1__AT1)))
(let ((.def_322 (or .def_319 .def_321)))
(let ((.def_226 (not b.counter.1__AT1)))
(let ((.def_4 (not b.counter.0__AT1)))
(let ((.def_312 (or .def_4 .def_226)))
(let ((.def_316 (or b.counter.3__AT1 .def_312)))
(let ((.def_313 (or b.counter.2__AT1 .def_312)))
(let ((.def_8 (not b.counter.2__AT1)))
(let ((.def_311 (or .def_4 .def_8)))
(let ((.def_314 (and .def_311 .def_313)))
(let ((.def_243 (not b.counter.3__AT1)))
(let ((.def_315 (or .def_243 .def_314)))
(let ((.def_317 (and .def_315 .def_316)))
(let ((.def_323 (and .def_317 .def_322)))
(let ((.def_327 (and .def_323 .def_326)))
(let ((.def_306 (<= 0.0 b.delta__AT0)))
(let ((.def_54 (not b.EVENT.0__AT0)))
(let ((.def_52 (not b.EVENT.1__AT0)))
(let ((.def_138 (and .def_52 .def_54)))
(let ((.def_140 (not .def_138)))
(let ((.def_307 (or .def_140 .def_306)))
(let ((.def_308 (or b.EVENT.1__AT0 .def_307)))
(let ((.def_179 (= b.bool_atom__AT0 b.bool_atom__AT1)))
(let ((.def_174 (= b.counter.0__AT1 b.counter.0__AT0)))
(let ((.def_172 (= b.counter.1__AT1 b.counter.1__AT0)))
(let ((.def_170 (= b.counter.2__AT1 b.counter.2__AT0)))
(let ((.def_169 (= b.counter.3__AT1 b.counter.3__AT0)))
(let ((.def_171 (and .def_169 .def_170)))
(let ((.def_173 (and .def_171 .def_172)))
(let ((.def_175 (and .def_173 .def_174)))
(let ((.def_302 (and .def_175 .def_179)))
(let ((.def_303 (or .def_140 .def_302)))
(let ((.def_304 (or b.EVENT.1__AT0 .def_303)))
(let ((.def_291 (* (- 10.0) b.y__AT1)))
(let ((.def_75 (* b.delta__AT0 b.delta__AT0)))
(let ((.def_84 (* (- 49.0) .def_75)))
(let ((.def_294 (+ .def_84 .def_291)))
(let ((.def_73 (* b.speed_y__AT0 b.delta__AT0)))
(let ((.def_74 (* 10.0 .def_73)))
(let ((.def_295 (+ .def_74 .def_294)))
(let ((.def_99 (* 10.0 b.y__AT0)))
(let ((.def_296 (+ .def_99 .def_295)))
(let ((.def_297 (= .def_296 0.0 )))
(let ((.def_285 (* (- 5.0) b.speed_y__AT1)))
(let ((.def_121 (* (- 49.0) b.delta__AT0)))
(let ((.def_286 (+ .def_121 .def_285)))
(let ((.def_123 (* 5.0 b.speed_y__AT0)))
(let ((.def_287 (+ .def_123 .def_286)))
(let ((.def_288 (= .def_287 0.0 )))
(let ((.def_277 (* b.speed_x__AT0 b.delta__AT0)))
(let ((.def_281 (+ .def_278 .def_277)))
(let ((.def_282 (+ b.x__AT0 .def_281)))
(let ((.def_283 (= .def_282 0.0 )))
(let ((.def_164 (= b.speed_x__AT0 b.speed_x__AT1)))
(let ((.def_284 (and .def_164 .def_283)))
(let ((.def_289 (and .def_284 .def_288)))
(let ((.def_298 (and .def_289 .def_297)))
(let ((.def_299 (or .def_140 .def_298)))
(let ((.def_161 (= b.y__AT0 b.y__AT1)))
(let ((.def_158 (= b.x__AT0 b.x__AT1)))
(let ((.def_271 (and .def_158 .def_161)))
(let ((.def_272 (and .def_164 .def_271)))
(let ((.def_167 (= b.speed_y__AT0 b.speed_y__AT1)))
(let ((.def_273 (and .def_167 .def_272)))
(let ((.def_268 (= b.delta__AT0 0.0 )))
(let ((.def_269 (and .def_138 .def_268)))
(let ((.def_270 (not .def_269)))
(let ((.def_274 (or .def_270 .def_273)))
(let ((.def_275 (or b.EVENT.1__AT0 .def_274)))
(let ((.def_260 (and .def_164 .def_167)))
(let ((.def_261 (and .def_175 .def_260)))
(let ((.def_262 (or b.bool_atom__AT0 .def_261)))
(let ((.def_235 (or .def_4 b.counter.0__AT0)))
(let ((.def_234 (or b.counter.0__AT1 .def_35)))
(let ((.def_236 (and .def_234 .def_235)))
(let ((.def_237 (and .def_226 .def_236)))
(let ((.def_238 (or b.counter.1__AT0 .def_237)))
(let ((.def_33 (not b.counter.1__AT0)))
(let ((.def_233 (or b.counter.1__AT1 .def_33)))
(let ((.def_239 (and .def_233 .def_238)))
(let ((.def_251 (and .def_8 .def_239)))
(let ((.def_252 (or b.counter.2__AT0 .def_251)))
(let ((.def_246 (and .def_35 .def_226)))
(let ((.def_247 (or b.counter.1__AT0 .def_246)))
(let ((.def_248 (and .def_233 .def_247)))
(let ((.def_249 (and b.counter.2__AT1 .def_248)))
(let ((.def_250 (or .def_38 .def_249)))
(let ((.def_253 (and .def_250 .def_252)))
(let ((.def_254 (and b.counter.3__AT1 .def_253)))
(let ((.def_255 (or b.counter.3__AT0 .def_254)))
(let ((.def_240 (and b.counter.2__AT1 .def_239)))
(let ((.def_241 (or b.counter.2__AT0 .def_240)))
(let ((.def_229 (or b.counter.1__AT1 b.counter.1__AT0)))
(let ((.def_227 (and b.counter.0__AT1 .def_226)))
(let ((.def_228 (or .def_33 .def_227)))
(let ((.def_230 (and .def_228 .def_229)))
(let ((.def_231 (and .def_8 .def_230)))
(let ((.def_232 (or .def_38 .def_231)))
(let ((.def_242 (and .def_232 .def_241)))
(let ((.def_244 (and .def_242 .def_243)))
(let ((.def_41 (not b.counter.3__AT0)))
(let ((.def_245 (or .def_41 .def_244)))
(let ((.def_256 (and .def_245 .def_255)))
(let ((.def_217 (* b.speed_y__AT0 b.speed_y__AT0)))
(let ((.def_216 (* b.speed_x__AT0 b.speed_x__AT0)))
(let ((.def_218 (+ .def_216 .def_217)))
(let ((.def_198 (* (- 1.0) b.speed_loss__AT0)))
(let ((.def_199 (+ 1.0 .def_198)))
(let ((.def_215 (* .def_199 .def_199)))
(let ((.def_219 (* .def_215 .def_218)))
(let ((.def_221 (* (- 1.0) .def_219)))
(let ((.def_212 (* b.speed_y__AT1 b.speed_y__AT1)))
(let ((.def_222 (+ .def_212 .def_221)))
(let ((.def_210 (* b.speed_x__AT1 b.speed_x__AT1)))
(let ((.def_223 (+ .def_210 .def_222)))
(let ((.def_224 (= .def_223 0.0 )))
(let ((.def_203 (* b.speed_y__AT0 .def_199)))
(let ((.def_186 (* (- 2.0) b.x__AT0)))
(let ((.def_187 (* (- 1.0) .def_186)))
(let ((.def_200 (* .def_187 .def_199)))
(let ((.def_201 (* b.speed_x__AT0 .def_200)))
(let ((.def_206 (+ .def_201 .def_203)))
(let ((.def_195 (* (- 2.0) b.x__AT1)))
(let ((.def_196 (* (- 1.0) .def_195)))
(let ((.def_197 (* b.speed_x__AT1 .def_196)))
(let ((.def_207 (+ .def_197 .def_206)))
(let ((.def_208 (+ b.speed_y__AT1 .def_207)))
(let ((.def_209 (= .def_208 0.0 )))
(let ((.def_225 (and .def_209 .def_224)))
(let ((.def_257 (and .def_225 .def_256)))
(let ((.def_194 (not b.bool_atom__AT0)))
(let ((.def_258 (or .def_194 .def_257)))
(let ((.def_188 (* b.speed_x__AT0 .def_187)))
(let ((.def_189 (+ b.speed_y__AT0 .def_188)))
(let ((.def_190 (<= 0.0 .def_189)))
(let ((.def_191 (not .def_190)))
(let ((.def_58 (* (- 1.0) b.x__AT0)))
(let ((.def_59 (* b.x__AT0 .def_58)))
(let ((.def_184 (= b.y__AT0 .def_59)))
(let ((.def_192 (and .def_184 .def_191)))
(let ((.def_193 (= b.bool_atom__AT0 .def_192)))
(let ((.def_259 (and .def_193 .def_258)))
(let ((.def_263 (and .def_259 .def_262)))
(let ((.def_264 (and .def_158 .def_263)))
(let ((.def_265 (and .def_161 .def_264)))
(let ((.def_266 (or .def_138 .def_265)))
(let ((.def_267 (or b.EVENT.1__AT0 .def_266)))
(let ((.def_276 (and .def_267 .def_275)))
(let ((.def_300 (and .def_276 .def_299)))
(let ((.def_145 (= b.time__AT0 b.time__AT1)))
(let ((.def_159 (and .def_145 .def_158)))
(let ((.def_162 (and .def_159 .def_161)))
(let ((.def_165 (and .def_162 .def_164)))
(let ((.def_168 (and .def_165 .def_167)))
(let ((.def_176 (and .def_168 .def_175)))
(let ((.def_180 (and .def_176 .def_179)))
(let ((.def_181 (or .def_52 .def_180)))
(let ((.def_148 (* (- 1.0) b.time__AT1)))
(let ((.def_151 (+ b.delta__AT0 .def_148)))
(let ((.def_152 (+ b.time__AT0 .def_151)))
(let ((.def_153 (= .def_152 0.0 )))
(let ((.def_154 (or .def_140 .def_153)))
(let ((.def_155 (or b.EVENT.1__AT0 .def_154)))
(let ((.def_146 (or .def_138 .def_145)))
(let ((.def_147 (or b.EVENT.1__AT0 .def_146)))
(let ((.def_156 (and .def_147 .def_155)))
(let ((.def_182 (and .def_156 .def_181)))
(let ((.def_142 (= .def_140 b.event_is_timed__AT1)))
(let ((.def_139 (= b.event_is_timed__AT0 .def_138)))
(let ((.def_143 (and .def_139 .def_142)))
(let ((.def_183 (and .def_143 .def_182)))
(let ((.def_301 (and .def_183 .def_300)))
(let ((.def_305 (and .def_301 .def_304)))
(let ((.def_309 (and .def_305 .def_308)))
(let ((.def_310 (and .def_52 .def_309)))
(let ((.def_328 (and .def_310 .def_327)))
(let ((.def_332 (and .def_328 .def_331)))
(let ((.def_76 (* (- 1.0) b.speed_x__AT0)))
(let ((.def_77 (* b.speed_x__AT0 .def_76)))
(let ((.def_78 (* (- 1.0) .def_77)))
(let ((.def_112 (* 2.0 .def_78)))
(let ((.def_113 (* b.delta__AT0 .def_112)))
(let ((.def_115 (* 5.0 .def_113)))
(let ((.def_91 (* b.speed_x__AT0 .def_58)))
(let ((.def_119 (* (- 5.0) .def_91)))
(let ((.def_125 (+ .def_119 .def_115)))
(let ((.def_86 (* b.x__AT0 .def_76)))
(let ((.def_117 (* (- 5.0) .def_86)))
(let ((.def_126 (+ .def_117 .def_125)))
(let ((.def_127 (+ .def_121 .def_126)))
(let ((.def_128 (+ .def_123 .def_127)))
(let ((.def_132 (<= .def_128 0.0 )))
(let ((.def_92 (* (- 1.0) .def_91)))
(let ((.def_87 (* (- 1.0) .def_86)))
(let ((.def_109 (+ .def_87 .def_92)))
(let ((.def_110 (+ b.speed_y__AT0 .def_109)))
(let ((.def_131 (<= .def_110 0.0 )))
(let ((.def_133 (and .def_131 .def_132)))
(let ((.def_129 (<= 0.0 .def_128)))
(let ((.def_111 (<= 0.0 .def_110)))
(let ((.def_130 (and .def_111 .def_129)))
(let ((.def_134 (or .def_130 .def_133)))
(let ((.def_93 (* b.delta__AT0 .def_92)))
(let ((.def_94 (* 10.0 .def_93)))
(let ((.def_88 (* b.delta__AT0 .def_87)))
(let ((.def_89 (* 10.0 .def_88)))
(let ((.def_101 (+ .def_89 .def_94)))
(let ((.def_79 (* .def_75 .def_78)))
(let ((.def_80 (* 10.0 .def_79)))
(let ((.def_102 (+ .def_80 .def_101)))
(let ((.def_103 (+ .def_84 .def_102)))
(let ((.def_104 (+ .def_74 .def_103)))
(let ((.def_97 (* (- 10.0) .def_59)))
(let ((.def_105 (+ .def_97 .def_104)))
(let ((.def_106 (+ .def_99 .def_105)))
(let ((.def_107 (<= 0.0 .def_106)))
(let ((.def_60 (<= .def_59 b.y__AT0)))
(let ((.def_108 (and .def_60 .def_107)))
(let ((.def_135 (and .def_108 .def_134)))
(let ((.def_136 (and .def_67 .def_135)))
(let ((.def_68 (and .def_60 .def_67)))
(let ((.def_55 (or .def_52 .def_54)))
(let ((.def_45 (or .def_33 .def_35)))
(let ((.def_49 (or b.counter.3__AT0 .def_45)))
(let ((.def_46 (or b.counter.2__AT0 .def_45)))
(let ((.def_44 (or .def_35 .def_38)))
(let ((.def_47 (and .def_44 .def_46)))
(let ((.def_48 (or .def_41 .def_47)))
(let ((.def_50 (and .def_48 .def_49)))
(let ((.def_56 (and .def_50 .def_55)))
(let ((.def_69 (and .def_56 .def_68)))
(let ((.def_36 (and .def_33 .def_35)))
(let ((.def_39 (and .def_36 .def_38)))
(let ((.def_42 (and .def_39 .def_41)))
(let ((.def_30 (= b.speed_y__AT0 1.0 )))
(let ((.def_27 (= b.speed_x__AT0 1.0 )))
(let ((.def_23 (= b.y__AT0 10.0 )))
(let ((.def_19 (= b.x__AT0 0.0 )))
(let ((.def_15 (= b.time__AT0 0.0 )))
(let ((.def_17 (and .def_15 b.event_is_timed__AT0)))
(let ((.def_20 (and .def_17 .def_19)))
(let ((.def_24 (and .def_20 .def_23)))
(let ((.def_28 (and .def_24 .def_27)))
(let ((.def_31 (and .def_28 .def_30)))
(let ((.def_43 (and .def_31 .def_42)))
(let ((.def_70 (and .def_43 .def_69)))
(let ((.def_6 (or .def_4 b.counter.1__AT1)))
(let ((.def_9 (or .def_6 .def_8)))
(let ((.def_11 (or .def_9 b.counter.3__AT1)))
(let ((.def_12 (not .def_11)))
(let ((.def_71 (and .def_12 .def_70)))
(let ((.def_137 (and .def_71 .def_136)))
(let ((.def_333 (and .def_137 .def_332)))
(let ((.def_394 (and .def_333 .def_393)))
.def_394)))))))))))))))))))))))))))))))))))))))))))))))))))))))))))))))))))))))))))))))))))))))))))))))))))))))))))))))))))))))))))))))))))))))))))))))))))))))))))))))))))))))))))))))))))))))))))))))))))))))))))))))))))))))))))))))))))))))))))))))))))))))))))))))))))))))))))))))))))))))))))))))))))))))))))))))))))))))))))))
(check-sat)
(exit)
